Results/Experiment 2 Results/New Benchmark/output_p1_0.25_p2_0.00_n_40_12.lp
clingo version 5.4.0
Reading from tempSRTISolver.lp ...
Solving...
Answer: 1
matched(6,2) matched(1,4) matched(8,5) matched(3,7) matched(5,8) matched(12,10) matched(9,11) matched(10,12) matched(11,9) matched(15,14) matched(14,15) matched(18,16) matched(20,17) matched(19,13) matched(27,23) matched(24,25) matched(23,27) matched(31,30) matched(30,31) matched(29,32) matched(32,29) matched(36,34) matched(35,37) matched(39,38) matched(38,39) matched(33,40) matched(7,3) matched(2,6) matched(4,1) matched(13,19) matched(17,20) matched(26,22) matched(25,24) matched(37,35) matched(34,36) matched(40,33) matched(22,26) matched(16,18) matched(21,28) matched(28,21)
Optimization: 389
Answer: 2
matched(6,2) matched(1,4) matched(8,5) matched(3,7) matched(5,8) matched(11,10) matched(10,11) matched(9,12) matched(12,9) matched(15,14) matched(14,15) matched(18,16) matched(20,17) matched(19,13) matched(27,23) matched(24,25) matched(23,27) matched(31,30) matched(30,31) matched(29,32) matched(32,29) matched(36,34) matched(35,37) matched(39,38) matched(38,39) matched(33,40) matched(7,3) matched(2,6) matched(4,1) matched(13,19) matched(17,20) matched(26,22) matched(25,24) matched(37,35) matched(34,36) matched(40,33) matched(22,26) matched(16,18) matched(21,28) matched(28,21)
Optimization: 388
Answer: 3
matched(6,2) matched(5,4) matched(4,5) matched(3,7) matched(1,8) matched(11,10) matched(10,11) matched(9,12) matched(12,9) matched(15,14) matched(14,15) matched(18,16) matched(20,17) matched(19,13) matched(27,23) matched(24,25) matched(23,27) matched(31,30) matched(30,31) matched(29,32) matched(32,29) matched(36,34) matched(35,37) matched(39,38) matched(38,39) matched(33,40) matched(7,3) matched(2,6) matched(8,1) matched(13,19) matched(17,20) matched(26,22) matched(25,24) matched(37,35) matched(34,36) matched(40,33) matched(22,26) matched(16,18) matched(21,28) matched(28,21)
Optimization: 387
Answer: 4
matched(6,2) matched(5,4) matched(4,5) matched(3,7) matched(1,8) matched(12,10) matched(9,11) matched(10,12) matched(11,9) matched(15,14) matched(14,15) matched(18,16) matched(20,17) matched(19,13) matched(25,23) matched(23,25) matched(26,27) matched(31,30) matched(30,31) matched(29,32) matched(32,29) matched(36,34) matched(35,37) matched(39,38) matched(38,39) matched(33,40) matched(7,3) matched(2,6) matched(8,1) matched(13,19) matched(17,20) matched(24,22) matched(22,24) matched(37,35) matched(34,36) matched(40,33) matched(27,26) matched(16,18) matched(21,28) matched(28,21)
Optimization: 382
Answer: 5
matched(6,2) matched(5,4) matched(4,5) matched(3,7) matched(1,8) matched(11,10) matched(10,11) matched(9,12) matched(12,9) matched(15,14) matched(14,15) matched(18,16) matched(20,17) matched(19,13) matched(25,23) matched(23,25) matched(26,27) matched(31,30) matched(30,31) matched(29,32) matched(32,29) matched(36,34) matched(35,37) matched(39,38) matched(38,39) matched(33,40) matched(7,3) matched(2,6) matched(8,1) matched(13,19) matched(17,20) matched(24,22) matched(22,24) matched(37,35) matched(34,36) matched(40,33) matched(27,26) matched(16,18) matched(21,28) matched(28,21)
Optimization: 381
Answer: 6
matched(3,2) matched(6,4) matched(8,5) matched(1,7) matched(5,8) matched(12,10) matched(9,11) matched(10,12) matched(11,9) matched(15,14) matched(14,15) matched(18,16) matched(20,17) matched(19,13) matched(25,23) matched(23,25) matched(26,27) matched(31,30) matched(30,31) matched(29,32) matched(32,29) matched(36,34) matched(35,37) matched(39,38) matched(38,39) matched(33,40) matched(2,3) matched(4,6) matched(7,1) matched(13,19) matched(17,20) matched(24,22) matched(22,24) matched(37,35) matched(34,36) matched(40,33) matched(27,26) matched(16,18) matched(21,28) matched(28,21)
Optimization: 377
Answer: 7
matched(3,2) matched(6,4) matched(8,5) matched(1,7) matched(5,8) matched(12,10) matched(9,11) matched(10,12) matched(11,9) matched(18,14) matched(19,15) matched(17,16) matched(16,17) matched(20,13) matched(25,23) matched(23,25) matched(26,27) matched(31,30) matched(30,31) matched(29,32) matched(32,29) matched(36,34) matched(35,37) matched(39,38) matched(38,39) matched(33,40) matched(2,3) matched(4,6) matched(7,1) matched(15,19) matched(13,20) matched(24,22) matched(22,24) matched(37,35) matched(34,36) matched(40,33) matched(27,26) matched(14,18) matched(21,28) matched(28,21)
Optimization: 376
Answer: 8
matched(3,2) matched(6,4) matched(8,5) matched(1,7) matched(5,8) matched(11,10) matched(10,11) matched(9,12) matched(12,9) matched(18,14) matched(19,15) matched(17,16) matched(16,17) matched(20,13) matched(25,23) matched(23,25) matched(26,27) matched(31,30) matched(30,31) matched(29,32) matched(32,29) matched(36,34) matched(35,37) matched(39,38) matched(38,39) matched(33,40) matched(2,3) matched(4,6) matched(7,1) matched(15,19) matched(13,20) matched(24,22) matched(22,24) matched(37,35) matched(34,36) matched(40,33) matched(27,26) matched(14,18) matched(21,28) matched(28,21)
Optimization: 375
OPTIMUM FOUND

Models       : 8
  Optimum    : yes
Optimization : 375
Calls        : 1
Time         : 0.571s (Solving: 0.16s 1st Model: 0.00s Unsat: 0.15s)
CPU Time     : 0.541s
